100
128
18
64
62
18
18
50
22
6
26
49
10
10
12
20
19
31
11
54
36
36
51
15
27
26
7
60
56
15
43
15
59
53
51
14
18
49
5
29
24
28
10
43
16
2
24
16
20
16
40
43
41
31
17
47
35
13
15
48
36
5
44
32
36
25
1
30
13
39
47
29
13
5
32
61
41
22
32
21
34
62
64
52
19
21
36
30
21
32
36
30
62
45
47
48
37
36
35
63
43
64